decision_x1=[0,2];
decision_x2=[0,2];
decision_x3=[0,2];
decision_x4=[0,2];
decision_x5=[0,2];
decision_x6=[0,2];
decision_x7=[0,2];
decision_x8=[0,2];
decision_x9=[0,2];
decision_x10=[0,2];
decision_x11=[0,2];
decision_x12=[0,2];
decision_x13=[0,2];
decision_x14=[0,2];
decision_x15=[0,2];
decision_x16=[0,2];
decision_x17=[0,2];
decision_x18=[0,2];
decision_x19=[0,2];
decision_x20=[0,2];
decision_x21=[0,2];
decision_x22=[0,2];
decision_x23=[0,2];
decision_x24=[0,2];
decision_x25=[0,2];
decision_x26=[0,2];
decision_x27=[0,2];
decision_x28=[0,2];
decision_x29=[0,2];
decision_x30=[0,2];
random_y1=[0,2];
random_y2=[0,2];
random_y3=[0,2];
random_y4=[0,2];
random_y5=[0,2];
random_y6=[0,2];
constraint_x2_x1=[
0,0,0.19|
0,1,3.9|
0,2,2.4|
1,0,5|
1,1,2.2|
1,2,3.6|
2,0,5.5|
2,1,4.6|
2,2,5.5|
];
constraint_x4_x1=[
0,0,1.7|
0,1,5.2|
0,2,4.6|
1,0,1.7|
1,1,3.4|
1,2,3.6|
2,0,0.11|
2,1,6.1|
2,2,2|
];
constraint_x4_x2=[
0,0,9.3|
0,1,2.1|
0,2,3.9|
1,0,6.2|
1,1,7.7|
1,2,10|
2,0,5.3|
2,1,3.4|
2,2,5|
];
constraint_x4_x3=[
0,0,5.7|
0,1,5.7|
0,2,8.4|
1,0,6.1|
1,1,3.8|
1,2,6|
2,0,1.2|
2,1,5.1|
2,2,5.9|
];
constraint_x5_x1=[
0,0,9.6|
0,1,7.5|
0,2,0.15|
1,0,1.4|
1,1,4|
1,2,4.2|
2,0,7.6|
2,1,4|
2,2,1.6|
];
constraint_x6_x4=[
0,0,2.8|
0,1,7.8|
0,2,7.7|
1,0,8|
1,1,5.6|
1,2,9.9|
2,0,8.2|
2,1,7.8|
2,2,7.1|
];
constraint_x7_x1=[
0,0,5.2|
0,1,9.7|
0,2,3.4|
1,0,0.35|
1,1,0.44|
1,2,7.2|
2,0,6.8|
2,1,2.7|
2,2,0.66|
];
constraint_x7_x3=[
0,0,6.8|
0,1,9.2|
0,2,8.2|
1,0,2.7|
1,1,8.7|
1,2,7.5|
2,0,5.2|
2,1,7.4|
2,2,9.8|
];
constraint_x7_x4=[
0,0,1|
0,1,7.1|
0,2,7.6|
1,0,1.8|
1,1,9.4|
1,2,8.8|
2,0,10|
2,1,2.2|
2,2,7.4|
];
constraint_x8_x1=[
0,0,0.92|
0,1,0.7|
0,2,5.7|
1,0,0.46|
1,1,5|
1,2,1.8|
2,0,7.6|
2,1,4.5|
2,2,6.2|
];
constraint_x8_x2=[
0,0,2.5|
0,1,8.3|
0,2,1.4|
1,0,5.6|
1,1,5|
1,2,5.7|
2,0,7.7|
2,1,0.95|
2,2,7|
];
constraint_x8_x4=[
0,0,4|
0,1,3.3|
0,2,3|
1,0,1.5|
1,1,4.3|
1,2,5.8|
2,0,1.1|
2,1,4.6|
2,2,6|
];
constraint_x8_x5=[
0,0,6.1|
0,1,8|
0,2,1.4|
1,0,1.4|
1,1,6.6|
1,2,4.6|
2,0,5.2|
2,1,1.2|
2,2,5.1|
];
constraint_x9_x5=[
0,0,8|
0,1,8|
0,2,2.4|
1,0,9.2|
1,1,1.8|
1,2,5.5|
2,0,2.7|
2,1,5.7|
2,2,3.4|
];
constraint_x9_x6=[
0,0,3.9|
0,1,3.2|
0,2,4.1|
1,0,2.1|
1,1,8.4|
1,2,1.1|
2,0,0.12|
2,1,2|
2,2,4.9|
];
constraint_x9_x8=[
0,0,2.5|
0,1,2.1|
0,2,2.7|
1,0,4.1|
1,1,7.5|
1,2,6.6|
2,0,6.9|
2,1,0.3|
2,2,3.9|
];
constraint_x10_x2=[
0,0,9.2|
0,1,6.7|
0,2,6.6|
1,0,5.6|
1,1,8|
1,2,1.3|
2,0,3.6|
2,1,5.1|
2,2,2.7|
];
constraint_x10_x3=[
0,0,4.7|
0,1,3.1|
0,2,9.9|
1,0,1.4|
1,1,7.5|
1,2,2.5|
2,0,1.7|
2,1,9.1|
2,2,2.1|
];
constraint_x10_x7=[
0,0,9.5|
0,1,3.1|
0,2,2.9|
1,0,5.6|
1,1,6.7|
1,2,1.5|
2,0,3.8|
2,1,8|
2,2,7.9|
];
constraint_x10_x8=[
0,0,5.4|
0,1,5.2|
0,2,0.29|
1,0,7.4|
1,1,3.9|
1,2,3.1|
2,0,0.49|
2,1,8.6|
2,2,6.1|
];
constraint_x10_x9=[
0,0,9.9|
0,1,6.6|
0,2,8.4|
1,0,4.2|
1,1,10|
1,2,3.3|
2,0,1.3|
2,1,0.83|
2,2,8.4|
];
constraint_x11_x2=[
0,0,4.2|
0,1,7.1|
0,2,2.6|
1,0,10|
1,1,1.9|
1,2,6.4|
2,0,9.8|
2,1,1.5|
2,2,8.9|
];
constraint_x11_x4=[
0,0,5.2|
0,1,2.4|
0,2,5.5|
1,0,6.4|
1,1,6.1|
1,2,8.4|
2,0,2.4|
2,1,0.12|
2,2,3.2|
];
constraint_x11_x5=[
0,0,7.4|
0,1,4.2|
0,2,4.5|
1,0,3.2|
1,1,1.4|
1,2,5.5|
2,0,8.4|
2,1,2.1|
2,2,3.2|
];
constraint_x11_x6=[
0,0,5.1|
0,1,7.3|
0,2,4.2|
1,0,3.4|
1,1,2.3|
1,2,2.4|
2,0,6.2|
2,1,7.3|
2,2,5.8|
];
constraint_x11_x7=[
0,0,4.3|
0,1,9|
0,2,9.5|
1,0,6.9|
1,1,5.7|
1,2,1.1|
2,0,0.81|
2,1,5.9|
2,2,6.5|
];
constraint_x11_x9=[
0,0,3.8|
0,1,8.6|
0,2,9.1|
1,0,4|
1,1,9.5|
1,2,9.6|
2,0,9.8|
2,1,0.25|
2,2,7.5|
];
constraint_x11_x10=[
0,0,9|
0,1,1.7|
0,2,5.4|
1,0,8.2|
1,1,6.3|
1,2,9.2|
2,0,9.1|
2,1,3.6|
2,2,2.1|
];
constraint_x12_x1=[
0,0,0.27|
0,1,5.2|
0,2,6.5|
1,0,4.9|
1,1,4.8|
1,2,0.58|
2,0,0.93|
2,1,4.7|
2,2,8.8|
];
constraint_x12_x4=[
0,0,8.8|
0,1,1.8|
0,2,8.5|
1,0,1.5|
1,1,4.6|
1,2,8.6|
2,0,5.5|
2,1,7.7|
2,2,9.8|
];
constraint_x12_x5=[
0,0,2.9|
0,1,3.7|
0,2,9.9|
1,0,8.5|
1,1,5.5|
1,2,4.3|
2,0,7.8|
2,1,1.5|
2,2,8.1|
];
constraint_x12_x8=[
0,0,2.4|
0,1,8.3|
0,2,5.9|
1,0,0.071|
1,1,4.2|
1,2,5.9|
2,0,2.6|
2,1,7.4|
2,2,2.4|
];
constraint_x13_x1=[
0,0,8.7|
0,1,8.7|
0,2,2.4|
1,0,3.5|
1,1,4.5|
1,2,2.5|
2,0,6.4|
2,1,0.74|
2,2,0.38|
];
constraint_x13_x2=[
0,0,2.1|
0,1,0.19|
0,2,7|
1,0,5.3|
1,1,6.9|
1,2,1.8|
2,0,3.6|
2,1,9.8|
2,2,2.1|
];
constraint_x13_x3=[
0,0,3.1|
0,1,4.9|
0,2,2.4|
1,0,0.14|
1,1,7.5|
1,2,6.2|
2,0,8.9|
2,1,2.9|
2,2,4.8|
];
constraint_x13_x4=[
0,0,8|
0,1,6|
0,2,3|
1,0,9.8|
1,1,8.2|
1,2,5.3|
2,0,9.6|
2,1,0.17|
2,2,1.5|
];
constraint_x13_x5=[
0,0,5.7|
0,1,1.3|
0,2,8.8|
1,0,3.1|
1,1,6.9|
1,2,7.6|
2,0,5.5|
2,1,5.9|
2,2,8.2|
];
constraint_x13_x7=[
0,0,8.2|
0,1,9.8|
0,2,1.6|
1,0,1|
1,1,1.6|
1,2,1.7|
2,0,8.9|
2,1,2.8|
2,2,8.9|
];
constraint_x13_x8=[
0,0,3.2|
0,1,6|
0,2,6.3|
1,0,6.7|
1,1,2.9|
1,2,6|
2,0,5|
2,1,5.4|
2,2,9|
];
constraint_x13_x9=[
0,0,9.2|
0,1,3.1|
0,2,1.6|
1,0,1.7|
1,1,9.9|
1,2,6|
2,0,7.9|
2,1,9.9|
2,2,6|
];
constraint_x13_x12=[
0,0,8.8|
0,1,2.9|
0,2,4.5|
1,0,2.6|
1,1,4.9|
1,2,1.5|
2,0,6.9|
2,1,8.9|
2,2,7.8|
];
constraint_x14_x2=[
0,0,2.4|
0,1,7.5|
0,2,6.3|
1,0,1|
1,1,9.7|
1,2,9|
2,0,8.8|
2,1,4|
2,2,9.1|
];
constraint_x14_x4=[
0,0,6.4|
0,1,5.4|
0,2,8.6|
1,0,8|
1,1,3.6|
1,2,1|
2,0,1.1|
2,1,1.6|
2,2,9.7|
];
constraint_x14_x5=[
0,0,9.9|
0,1,0.052|
0,2,0.26|
1,0,4.6|
1,1,1.9|
1,2,1.8|
2,0,7.2|
2,1,0.84|
2,2,2.3|
];
constraint_x14_x7=[
0,0,3.8|
0,1,7|
0,2,4.1|
1,0,5|
1,1,5.2|
1,2,6|
2,0,2.4|
2,1,2.8|
2,2,9.9|
];
constraint_x14_x12=[
0,0,1.4|
0,1,8.7|
0,2,7.7|
1,0,2.6|
1,1,5.5|
1,2,6.6|
2,0,1.1|
2,1,5.5|
2,2,8.9|
];
constraint_x14_x13=[
0,0,3.3|
0,1,7|
0,2,8.6|
1,0,4.3|
1,1,1.8|
1,2,7.2|
2,0,6.9|
2,1,4.2|
2,2,6.7|
];
constraint_x15_x1=[
0,0,0.84|
0,1,5.3|
0,2,3.7|
1,0,7.1|
1,1,6.3|
1,2,3.9|
2,0,6.8|
2,1,9.2|
2,2,5.4|
];
constraint_x15_x3=[
0,0,9.1|
0,1,0.73|
0,2,5.2|
1,0,2.6|
1,1,9.2|
1,2,4.5|
2,0,2|
2,1,6.8|
2,2,9.9|
];
constraint_x15_x10=[
0,0,2.3|
0,1,6.5|
0,2,0.88|
1,0,2.8|
1,1,7.3|
1,2,7.2|
2,0,3.2|
2,1,0.63|
2,2,6.4|
];
constraint_x15_x11=[
0,0,6|
0,1,7.9|
0,2,8.7|
1,0,0.63|
1,1,9|
1,2,8.2|
2,0,5.4|
2,1,5.8|
2,2,8.9|
];
constraint_x15_x12=[
0,0,3.1|
0,1,0.64|
0,2,7.5|
1,0,9.1|
1,1,3.7|
1,2,1.3|
2,0,4.6|
2,1,0.86|
2,2,1.3|
];
constraint_x15_x13=[
0,0,7.5|
0,1,3.9|
0,2,2|
1,0,6.5|
1,1,0.21|
1,2,7.6|
2,0,5.8|
2,1,1.7|
2,2,1.6|
];
constraint_x16_x1=[
0,0,1.5|
0,1,7.2|
0,2,2.1|
1,0,7.6|
1,1,5.9|
1,2,6.1|
2,0,6.9|
2,1,9.6|
2,2,1|
];
constraint_x16_x4=[
0,0,7.7|
0,1,5.3|
0,2,0.33|
1,0,5.4|
1,1,9.3|
1,2,2|
2,0,1.4|
2,1,0.99|
2,2,8.4|
];
constraint_x16_x5=[
0,0,8|
0,1,7.4|
0,2,1.1|
1,0,9.7|
1,1,7|
1,2,3.2|
2,0,9.9|
2,1,0.82|
2,2,4.5|
];
constraint_x16_x6=[
0,0,1.3|
0,1,9.1|
0,2,5.3|
1,0,3.3|
1,1,1.6|
1,2,1.8|
2,0,0.56|
2,1,2.6|
2,2,5.1|
];
constraint_x16_x7=[
0,0,0.92|
0,1,3.2|
0,2,9|
1,0,4.2|
1,1,1.4|
1,2,1.5|
2,0,2.3|
2,1,7.2|
2,2,6.4|
];
constraint_x16_x9=[
0,0,0.49|
0,1,5.3|
0,2,6|
1,0,5.1|
1,1,6.9|
1,2,1.7|
2,0,2|
2,1,0.8|
2,2,0.47|
];
constraint_x16_x12=[
0,0,7.2|
0,1,6.9|
0,2,9.1|
1,0,1.7|
1,1,3.5|
1,2,9.1|
2,0,4|
2,1,3.2|
2,2,2.4|
];
constraint_x16_x13=[
0,0,7.6|
0,1,6.2|
0,2,4.1|
1,0,6.1|
1,1,7.2|
1,2,8.4|
2,0,4|
2,1,7.3|
2,2,0.8|
];
constraint_x16_x14=[
0,0,3.8|
0,1,8.4|
0,2,8.1|
1,0,6.3|
1,1,0.6|
1,2,4.1|
2,0,5|
2,1,3.9|
2,2,6|
];
constraint_x17_x1=[
0,0,9.5|
0,1,4.6|
0,2,8.4|
1,0,3.6|
1,1,9.2|
1,2,3.4|
2,0,8.2|
2,1,6.4|
2,2,1.3|
];
constraint_x17_x2=[
0,0,4.4|
0,1,2.1|
0,2,8.5|
1,0,6.1|
1,1,6.4|
1,2,3.3|
2,0,0.31|
2,1,5.3|
2,2,6.5|
];
constraint_x17_x3=[
0,0,7.2|
0,1,3.2|
0,2,5|
1,0,1.3|
1,1,7.6|
1,2,2.1|
2,0,5.6|
2,1,6.7|
2,2,7.5|
];
constraint_x17_x6=[
0,0,1.4|
0,1,1|
0,2,2|
1,0,7.5|
1,1,0.89|
1,2,9.5|
2,0,1.7|
2,1,8.5|
2,2,9.3|
];
constraint_x17_x7=[
0,0,2.8|
0,1,5.3|
0,2,5.6|
1,0,5.7|
1,1,2.4|
1,2,7|
2,0,9.2|
2,1,0.24|
2,2,6.5|
];
constraint_x17_x8=[
0,0,9|
0,1,7.2|
0,2,4.3|
1,0,7|
1,1,9.5|
1,2,1.9|
2,0,8.7|
2,1,0.43|
2,2,9.7|
];
constraint_x17_x11=[
0,0,3.7|
0,1,0.8|
0,2,6.8|
1,0,7.1|
1,1,0.65|
1,2,7|
2,0,2.7|
2,1,0.11|
2,2,4.2|
];
constraint_x17_x13=[
0,0,7.4|
0,1,9.1|
0,2,6.9|
1,0,5|
1,1,7.2|
1,2,4.8|
2,0,2.3|
2,1,6.6|
2,2,8.5|
];
constraint_x17_x14=[
0,0,9.9|
0,1,2.9|
0,2,3.4|
1,0,7.8|
1,1,9.2|
1,2,10|
2,0,3.5|
2,1,2|
2,2,6.6|
];
constraint_x17_x15=[
0,0,4.9|
0,1,2.4|
0,2,0.58|
1,0,8.9|
1,1,4.3|
1,2,0.28|
2,0,0.5|
2,1,8.6|
2,2,0.88|
];
constraint_x17_x16=[
0,0,3.6|
0,1,3.8|
0,2,6.3|
1,0,1.7|
1,1,8.3|
1,2,9|
2,0,8.8|
2,1,3|
2,2,9.5|
];
constraint_x18_x1=[
0,0,7.5|
0,1,4.4|
0,2,8.8|
1,0,1.8|
1,1,3|
1,2,6.8|
2,0,3|
2,1,7|
2,2,4.6|
];
constraint_x18_x3=[
0,0,0.6|
0,1,4.7|
0,2,0.63|
1,0,2.4|
1,1,4.3|
1,2,5.3|
2,0,2.1|
2,1,6.9|
2,2,2.2|
];
constraint_x18_x10=[
0,0,2.5|
0,1,7.3|
0,2,5.1|
1,0,10|
1,1,9|
1,2,2.6|
2,0,7.9|
2,1,0.6|
2,2,7.7|
];
constraint_x19_x1=[
0,0,8.4|
0,1,7.5|
0,2,9.5|
1,0,4.1|
1,1,2.6|
1,2,8|
2,0,8|
2,1,7|
2,2,5.8|
];
constraint_x19_x2=[
0,0,2.7|
0,1,4.1|
0,2,6.3|
1,0,0.21|
1,1,7.8|
1,2,1.1|
2,0,6.8|
2,1,9|
2,2,1|
];
constraint_x19_x7=[
0,0,3.4|
0,1,9.2|
0,2,8.6|
1,0,7|
1,1,6.6|
1,2,3.9|
2,0,5.9|
2,1,7.2|
2,2,8.7|
];
constraint_x19_x9=[
0,0,3.7|
0,1,4.4|
0,2,10|
1,0,6.6|
1,1,8.2|
1,2,3.7|
2,0,6.3|
2,1,6.2|
2,2,8.7|
];
constraint_x19_x13=[
0,0,8.5|
0,1,9.7|
0,2,9.2|
1,0,8|
1,1,10|
1,2,4.8|
2,0,8.7|
2,1,9.2|
2,2,4.4|
];
constraint_x19_x16=[
0,0,9.5|
0,1,4.7|
0,2,9.9|
1,0,8.3|
1,1,9|
1,2,1|
2,0,3|
2,1,5.2|
2,2,1.2|
];
constraint_x19_x17=[
0,0,6|
0,1,6.8|
0,2,9.1|
1,0,3.1|
1,1,5|
1,2,8.7|
2,0,9.1|
2,1,4.3|
2,2,1.6|
];
constraint_x20_x2=[
0,0,7.8|
0,1,0.74|
0,2,1.5|
1,0,2|
1,1,5.7|
1,2,6.4|
2,0,9|
2,1,9.2|
2,2,1.5|
];
constraint_x20_x4=[
0,0,8.9|
0,1,8|
0,2,7.4|
1,0,8.1|
1,1,8.7|
1,2,5.7|
2,0,9.8|
2,1,8.5|
2,2,5.4|
];
constraint_x20_x9=[
0,0,5.7|
0,1,6.4|
0,2,5.7|
1,0,2.4|
1,1,4.4|
1,2,3.4|
2,0,2.1|
2,1,1.2|
2,2,0.16|
];
constraint_x20_x10=[
0,0,3.6|
0,1,3.7|
0,2,5|
1,0,2.2|
1,1,3.6|
1,2,0.48|
2,0,8.2|
2,1,5.7|
2,2,2.3|
];
constraint_x20_x11=[
0,0,4.1|
0,1,9.5|
0,2,0.48|
1,0,2.2|
1,1,3.7|
1,2,8.3|
2,0,3.2|
2,1,1.2|
2,2,3.7|
];
constraint_x20_x13=[
0,0,8.8|
0,1,4.1|
0,2,6|
1,0,8.8|
1,1,7.1|
1,2,0.47|
2,0,8.8|
2,1,7.4|
2,2,9.2|
];
constraint_x20_x14=[
0,0,6.5|
0,1,7.7|
0,2,6.1|
1,0,0.19|
1,1,0.29|
1,2,2.6|
2,0,7.8|
2,1,6.5|
2,2,5.4|
];
constraint_x20_x16=[
0,0,7|
0,1,1.8|
0,2,6.2|
1,0,1.1|
1,1,2.8|
1,2,5.3|
2,0,8.4|
2,1,3.9|
2,2,6.9|
];
constraint_x20_x17=[
0,0,1.4|
0,1,1.9|
0,2,1.3|
1,0,6.7|
1,1,3.4|
1,2,0.66|
2,0,3.6|
2,1,4|
2,2,4.2|
];
constraint_x20_x19=[
0,0,2.1|
0,1,5.7|
0,2,9|
1,0,4.5|
1,1,3.6|
1,2,9.4|
2,0,9.3|
2,1,9|
2,2,3.6|
];
constraint_x21_x3=[
0,0,5.9|
0,1,7.5|
0,2,6.6|
1,0,8.1|
1,1,0.53|
1,2,8|
2,0,0.0073|
2,1,7|
2,2,4.3|
];
constraint_x21_x4=[
0,0,10|
0,1,9.9|
0,2,0.72|
1,0,8.2|
1,1,5|
1,2,1.5|
2,0,9.8|
2,1,8.5|
2,2,6.8|
];
constraint_x21_x6=[
0,0,2.9|
0,1,4.1|
0,2,7.7|
1,0,5.5|
1,1,3.2|
1,2,3.5|
2,0,8.4|
2,1,0.58|
2,2,5.8|
];
constraint_x21_x7=[
0,0,8.5|
0,1,1.2|
0,2,2.3|
1,0,6.2|
1,1,5.5|
1,2,8.2|
2,0,5.1|
2,1,4.2|
2,2,6.4|
];
constraint_x21_x9=[
0,0,5.1|
0,1,0.44|
0,2,3.1|
1,0,9.3|
1,1,6.9|
1,2,9.3|
2,0,2.6|
2,1,0.89|
2,2,6|
];
constraint_x21_x10=[
0,0,1.4|
0,1,8|
0,2,1.2|
1,0,6.5|
1,1,8.4|
1,2,8.6|
2,0,3.5|
2,1,0.73|
2,2,8.8|
];
constraint_x21_x12=[
0,0,1.4|
0,1,2.1|
0,2,5.7|
1,0,6.4|
1,1,2.8|
1,2,1.6|
2,0,6.6|
2,1,3.4|
2,2,0.17|
];
constraint_x21_x15=[
0,0,3|
0,1,4.8|
0,2,2.2|
1,0,1.9|
1,1,6.5|
1,2,3.9|
2,0,0.75|
2,1,4.2|
2,2,3.8|
];
constraint_x21_x20=[
0,0,4.4|
0,1,6.5|
0,2,9|
1,0,6.8|
1,1,0.47|
1,2,6.4|
2,0,5|
2,1,7.5|
2,2,3.6|
];
constraint_x22_x9=[
0,0,9.1|
0,1,4.4|
0,2,1.4|
1,0,1.7|
1,1,8.9|
1,2,0.39|
2,0,7.8|
2,1,1.5|
2,2,9.6|
];
constraint_x22_x11=[
0,0,5.2|
0,1,9.8|
0,2,1.8|
1,0,4.2|
1,1,1.6|
1,2,5.2|
2,0,2.4|
2,1,9.9|
2,2,6.4|
];
constraint_x22_x12=[
0,0,0.39|
0,1,7.5|
0,2,4.7|
1,0,1.5|
1,1,7.4|
1,2,3.3|
2,0,2.3|
2,1,7.5|
2,2,3.2|
];
constraint_x22_x13=[
0,0,0.74|
0,1,6.2|
0,2,8.9|
1,0,5|
1,1,9.4|
1,2,3.2|
2,0,5.4|
2,1,7.7|
2,2,1.6|
];
constraint_x22_x14=[
0,0,3.8|
0,1,1.8|
0,2,6.9|
1,0,3.3|
1,1,7.6|
1,2,1.4|
2,0,3.2|
2,1,4.9|
2,2,2.8|
];
constraint_x22_x16=[
0,0,3.2|
0,1,0.34|
0,2,1.3|
1,0,1|
1,1,6|
1,2,5.6|
2,0,7.1|
2,1,9.9|
2,2,9.2|
];
constraint_x22_x19=[
0,0,9|
0,1,1.1|
0,2,5.2|
1,0,3.1|
1,1,9.4|
1,2,5.7|
2,0,9.7|
2,1,6.2|
2,2,1.6|
];
constraint_x23_x3=[
0,0,8.4|
0,1,8.4|
0,2,0.84|
1,0,6.5|
1,1,1.7|
1,2,8.8|
2,0,3.9|
2,1,3.4|
2,2,9.8|
];
constraint_x23_x5=[
0,0,6.8|
0,1,3.5|
0,2,8.8|
1,0,9.5|
1,1,8.1|
1,2,7.1|
2,0,9.6|
2,1,8.3|
2,2,2|
];
constraint_x23_x6=[
0,0,9|
0,1,3.4|
0,2,6.4|
1,0,1.2|
1,1,9.3|
1,2,2.9|
2,0,1.4|
2,1,6.4|
2,2,6.3|
];
constraint_x23_x7=[
0,0,4|
0,1,9.5|
0,2,9.6|
1,0,3.3|
1,1,5.3|
1,2,0.85|
2,0,2.2|
2,1,2.8|
2,2,6.6|
];
constraint_x23_x11=[
0,0,1.9|
0,1,0.059|
0,2,4.6|
1,0,7.4|
1,1,0.93|
1,2,5.1|
2,0,2|
2,1,5.6|
2,2,2.2|
];
constraint_x23_x14=[
0,0,3.9|
0,1,0.76|
0,2,8.8|
1,0,8.7|
1,1,6.8|
1,2,5.6|
2,0,2.4|
2,1,7.3|
2,2,9.1|
];
constraint_x23_x15=[
0,0,7.7|
0,1,0.94|
0,2,7.3|
1,0,7.8|
1,1,0.16|
1,2,6.8|
2,0,5.8|
2,1,2.8|
2,2,4|
];
constraint_x23_x19=[
0,0,0.089|
0,1,1.6|
0,2,4.9|
1,0,2.5|
1,1,9.2|
1,2,2.5|
2,0,2.4|
2,1,6.2|
2,2,4|
];
constraint_x23_x20=[
0,0,5.2|
0,1,5.6|
0,2,8.8|
1,0,6.6|
1,1,6.3|
1,2,9.9|
2,0,3.5|
2,1,2.8|
2,2,4.9|
];
constraint_x24_x1=[
0,0,4.8|
0,1,0.052|
0,2,5.8|
1,0,4.2|
1,1,2.5|
1,2,9.9|
2,0,0.74|
2,1,6.3|
2,2,3.7|
];
constraint_x24_x2=[
0,0,6|
0,1,3.8|
0,2,2.3|
1,0,4.3|
1,1,0.66|
1,2,5.5|
2,0,5.3|
2,1,2.7|
2,2,6.5|
];
constraint_x24_x6=[
0,0,1.4|
0,1,5.9|
0,2,0.0024|
1,0,6.5|
1,1,9.7|
1,2,5.8|
2,0,7.6|
2,1,2.6|
2,2,3|
];
constraint_x24_x8=[
0,0,8.8|
0,1,5.2|
0,2,1.5|
1,0,7.7|
1,1,6.5|
1,2,2|
2,0,4.5|
2,1,2.2|
2,2,3.2|
];
constraint_x24_x9=[
0,0,7.2|
0,1,4.8|
0,2,5.5|
1,0,1.5|
1,1,8.1|
1,2,9.7|
2,0,5.3|
2,1,8.2|
2,2,0.88|
];
constraint_x24_x10=[
0,0,4.8|
0,1,9.6|
0,2,2.9|
1,0,6.9|
1,1,2.9|
1,2,0.78|
2,0,3.3|
2,1,3.4|
2,2,2.6|
];
constraint_x24_x11=[
0,0,0.82|
0,1,9.5|
0,2,3.5|
1,0,8.3|
1,1,5.1|
1,2,8.7|
2,0,7.2|
2,1,8.5|
2,2,6.9|
];
constraint_x24_x16=[
0,0,4.5|
0,1,4.3|
0,2,3.1|
1,0,1.8|
1,1,3.4|
1,2,7.5|
2,0,9.7|
2,1,2.8|
2,2,7.1|
];
constraint_x24_x21=[
0,0,2.1|
0,1,7.9|
0,2,6.5|
1,0,8.2|
1,1,1.8|
1,2,1.4|
2,0,8.7|
2,1,8.3|
2,2,8.7|
];
constraint_x25_x1=[
0,0,6.4|
0,1,2.3|
0,2,1.1|
1,0,9.5|
1,1,0.56|
1,2,1.6|
2,0,1.7|
2,1,5.7|
2,2,8.8|
];
constraint_x25_x3=[
0,0,3.8|
0,1,8.6|
0,2,3.8|
1,0,6.8|
1,1,4.9|
1,2,5|
2,0,5|
2,1,7|
2,2,2.7|
];
constraint_x25_x4=[
0,0,0.3|
0,1,4.2|
0,2,6.5|
1,0,5.6|
1,1,1.8|
1,2,2.2|
2,0,7.3|
2,1,5.5|
2,2,2.6|
];
constraint_x25_x10=[
0,0,10|
0,1,9.7|
0,2,9.5|
1,0,3.9|
1,1,7.8|
1,2,6.1|
2,0,4.4|
2,1,7.8|
2,2,3.4|
];
constraint_x25_x12=[
0,0,8.6|
0,1,9.2|
0,2,2.9|
1,0,2.8|
1,1,2.1|
1,2,2.7|
2,0,1.3|
2,1,8|
2,2,5|
];
constraint_x25_x13=[
0,0,5.8|
0,1,5.5|
0,2,1.5|
1,0,8.2|
1,1,9.7|
1,2,9.6|
2,0,8.6|
2,1,0.0041|
2,2,1.2|
];
constraint_x25_x14=[
0,0,2.9|
0,1,7.4|
0,2,8.8|
1,0,6.9|
1,1,9.3|
1,2,0.68|
2,0,6.2|
2,1,7.5|
2,2,9.4|
];
constraint_x25_x15=[
0,0,7.4|
0,1,0.21|
0,2,4.5|
1,0,8.8|
1,1,1.7|
1,2,2.8|
2,0,5.7|
2,1,9.2|
2,2,3.1|
];
constraint_x25_x17=[
0,0,9.1|
0,1,2.8|
0,2,2.6|
1,0,3.7|
1,1,0.86|
1,2,9|
2,0,7.6|
2,1,2.5|
2,2,3.5|
];
constraint_x25_x19=[
0,0,6.8|
0,1,6.6|
0,2,9.9|
1,0,8.8|
1,1,6.4|
1,2,9.6|
2,0,6.6|
2,1,5.3|
2,2,7|
];
constraint_x25_x20=[
0,0,5.6|
0,1,8.9|
0,2,8|
1,0,8.6|
1,1,4.6|
1,2,8.5|
2,0,8.1|
2,1,4.4|
2,2,1.4|
];
constraint_x25_x22=[
0,0,3|
0,1,8.1|
0,2,0.21|
1,0,8.3|
1,1,9.9|
1,2,2.7|
2,0,6.6|
2,1,1.6|
2,2,8.2|
];
constraint_x25_x24=[
0,0,0.15|
0,1,3.3|
0,2,8.1|
1,0,6.3|
1,1,4.6|
1,2,0.57|
2,0,2.2|
2,1,9.9|
2,2,8.5|
];
constraint_x26_x1=[
0,0,4.4|
0,1,4.2|
0,2,6|
1,0,4.7|
1,1,0.66|
1,2,0.73|
2,0,6.3|
2,1,5.5|
2,2,0.11|
];
constraint_x26_x2=[
0,0,9.1|
0,1,2.8|
0,2,2.8|
1,0,4.9|
1,1,3.7|
1,2,0.8|
2,0,5.7|
2,1,0.021|
2,2,8|
];
constraint_x26_x3=[
0,0,5.5|
0,1,8.1|
0,2,4.4|
1,0,8.5|
1,1,8.9|
1,2,4.1|
2,0,5.8|
2,1,3.9|
2,2,2.3|
];
constraint_x26_x9=[
0,0,1.6|
0,1,8|
0,2,5.4|
1,0,4.6|
1,1,1.6|
1,2,9.2|
2,0,7.3|
2,1,9|
2,2,2.2|
];
constraint_x26_x10=[
0,0,1.1|
0,1,5.6|
0,2,0.68|
1,0,7.1|
1,1,9.3|
1,2,10|
2,0,1.6|
2,1,2.6|
2,2,3.2|
];
constraint_x26_x13=[
0,0,6.6|
0,1,9.6|
0,2,3.1|
1,0,7.7|
1,1,8.2|
1,2,7.6|
2,0,3.9|
2,1,9.4|
2,2,8.5|
];
constraint_x26_x14=[
0,0,3.5|
0,1,2.9|
0,2,8.7|
1,0,3.8|
1,1,0.75|
1,2,9.5|
2,0,5.5|
2,1,7.1|
2,2,2.7|
];
constraint_x26_x17=[
0,0,4.1|
0,1,7|
0,2,3.3|
1,0,6.9|
1,1,2.6|
1,2,3.8|
2,0,3.6|
2,1,6.3|
2,2,0.5|
];
constraint_x26_x19=[
0,0,4.4|
0,1,7.4|
0,2,7.6|
1,0,8.7|
1,1,7.1|
1,2,7.9|
2,0,4|
2,1,4.2|
2,2,0.28|
];
constraint_x26_x22=[
0,0,3.2|
0,1,6.4|
0,2,7.2|
1,0,1.1|
1,1,7.7|
1,2,3.8|
2,0,4.8|
2,1,5.4|
2,2,2.2|
];
constraint_x26_x23=[
0,0,5.5|
0,1,9.3|
0,2,10|
1,0,0.41|
1,1,4.1|
1,2,2.5|
2,0,1.5|
2,1,6.1|
2,2,9.4|
];
constraint_x26_x25=[
0,0,6.6|
0,1,0.67|
0,2,3.2|
1,0,6.1|
1,1,1.3|
1,2,4.2|
2,0,8.2|
2,1,7.5|
2,2,8.2|
];
constraint_x27_x1=[
0,0,6.5|
0,1,2.9|
0,2,3.3|
1,0,2.9|
1,1,4.3|
1,2,8.2|
2,0,6.2|
2,1,6.3|
2,2,4.5|
];
constraint_x27_x2=[
0,0,5|
0,1,0.48|
0,2,1.2|
1,0,7.4|
1,1,7.4|
1,2,3.4|
2,0,5.4|
2,1,2.3|
2,2,8.5|
];
constraint_x27_x4=[
0,0,3.3|
0,1,5.3|
0,2,4.5|
1,0,7.4|
1,1,8|
1,2,0.98|
2,0,1.4|
2,1,5|
2,2,6.6|
];
constraint_x27_x9=[
0,0,6.6|
0,1,9.9|
0,2,2.6|
1,0,4.8|
1,1,5.7|
1,2,2.8|
2,0,6.3|
2,1,4.9|
2,2,4.4|
];
constraint_x27_x10=[
0,0,3.5|
0,1,9.9|
0,2,7.6|
1,0,8.5|
1,1,7.4|
1,2,8.2|
2,0,4.2|
2,1,4.7|
2,2,4.1|
];
constraint_x27_x12=[
0,0,1.4|
0,1,4.5|
0,2,0.83|
1,0,4.1|
1,1,9.5|
1,2,0.073|
2,0,2|
2,1,0.55|
2,2,1|
];
constraint_x27_x14=[
0,0,3.7|
0,1,3.6|
0,2,5.8|
1,0,4.6|
1,1,6.1|
1,2,8.6|
2,0,3.8|
2,1,3.1|
2,2,0.3|
];
constraint_x27_x17=[
0,0,9.7|
0,1,4.1|
0,2,8|
1,0,4.8|
1,1,5.6|
1,2,6.8|
2,0,1.3|
2,1,8|
2,2,7.4|
];
constraint_x27_x21=[
0,0,5.7|
0,1,8.2|
0,2,1.3|
1,0,8.2|
1,1,3.3|
1,2,8.8|
2,0,5.7|
2,1,0.79|
2,2,3|
];
constraint_x27_x23=[
0,0,7.4|
0,1,9.5|
0,2,0.76|
1,0,8.1|
1,1,4.1|
1,2,9.7|
2,0,0.46|
2,1,7.5|
2,2,9.2|
];
constraint_x27_x24=[
0,0,2.9|
0,1,4.9|
0,2,1.6|
1,0,8.3|
1,1,1.3|
1,2,0.29|
2,0,6.7|
2,1,8.8|
2,2,1.3|
];
constraint_x27_x25=[
0,0,9.6|
0,1,0.98|
0,2,2|
1,0,1.9|
1,1,9.6|
1,2,2.5|
2,0,0.76|
2,1,6|
2,2,9.2|
];
constraint_x27_x26=[
0,0,5.1|
0,1,5.1|
0,2,7.3|
1,0,7.7|
1,1,3.9|
1,2,8.4|
2,0,6.1|
2,1,8.7|
2,2,8.4|
];
constraint_x28_x1=[
0,0,4.1|
0,1,4.9|
0,2,3|
1,0,5|
1,1,0.69|
1,2,2|
2,0,1.9|
2,1,7.9|
2,2,8.3|
];
constraint_x28_x2=[
0,0,4.9|
0,1,7|
0,2,5.4|
1,0,3.6|
1,1,0.77|
1,2,4.8|
2,0,2.4|
2,1,1.6|
2,2,2.9|
];
constraint_x28_x4=[
0,0,2.9|
0,1,6.6|
0,2,9.2|
1,0,10|
1,1,8.1|
1,2,0.46|
2,0,9.8|
2,1,2.1|
2,2,7.5|
];
constraint_x28_x5=[
0,0,6.4|
0,1,8.7|
0,2,2.9|
1,0,4.5|
1,1,3.3|
1,2,0.012|
2,0,7.3|
2,1,7.2|
2,2,4.8|
];
constraint_x28_x6=[
0,0,5.8|
0,1,3|
0,2,7.3|
1,0,1.1|
1,1,8.5|
1,2,7.8|
2,0,2.7|
2,1,3.6|
2,2,6.7|
];
constraint_x28_x7=[
0,0,9|
0,1,0.27|
0,2,7.1|
1,0,3.7|
1,1,7.3|
1,2,2.9|
2,0,5.9|
2,1,3.9|
2,2,2.1|
];
constraint_x28_x8=[
0,0,8.1|
0,1,4.4|
0,2,9.6|
1,0,3.7|
1,1,2|
1,2,4.8|
2,0,6.3|
2,1,9|
2,2,4.4|
];
constraint_x28_x10=[
0,0,6.4|
0,1,8.9|
0,2,0.35|
1,0,2.6|
1,1,0.79|
1,2,3.3|
2,0,7.9|
2,1,9.8|
2,2,3.4|
];
constraint_x28_x11=[
0,0,1.2|
0,1,7|
0,2,1.2|
1,0,1.9|
1,1,7|
1,2,5.9|
2,0,2|
2,1,6.5|
2,2,9.9|
];
constraint_x28_x13=[
0,0,6.5|
0,1,0.096|
0,2,5.8|
1,0,4.6|
1,1,3.2|
1,2,2.5|
2,0,9.8|
2,1,0.32|
2,2,5.4|
];
constraint_x28_x14=[
0,0,5.1|
0,1,8.4|
0,2,0.75|
1,0,1.7|
1,1,2.5|
1,2,5.8|
2,0,4.9|
2,1,6.9|
2,2,5.8|
];
constraint_x28_x15=[
0,0,5|
0,1,0.22|
0,2,2.1|
1,0,5|
1,1,5.4|
1,2,1.3|
2,0,9.5|
2,1,0.36|
2,2,9.4|
];
constraint_x28_x16=[
0,0,3.8|
0,1,9.4|
0,2,8.4|
1,0,7.4|
1,1,8.1|
1,2,0.81|
2,0,7.5|
2,1,2|
2,2,7|
];
constraint_x28_x17=[
0,0,8.9|
0,1,8.2|
0,2,6.3|
1,0,6.6|
1,1,1.8|
1,2,8.8|
2,0,6.4|
2,1,3.8|
2,2,1.4|
];
constraint_x28_x18=[
0,0,7.4|
0,1,0.37|
0,2,3.5|
1,0,2.2|
1,1,8|
1,2,0.61|
2,0,0.37|
2,1,0.86|
2,2,6.9|
];
constraint_x28_x19=[
0,0,4.6|
0,1,6.3|
0,2,1.6|
1,0,3.7|
1,1,7.2|
1,2,2.5|
2,0,1.6|
2,1,9.7|
2,2,8.5|
];
constraint_x28_x21=[
0,0,3.2|
0,1,4.9|
0,2,2.3|
1,0,1.3|
1,1,7.4|
1,2,1|
2,0,2|
2,1,6.2|
2,2,8.4|
];
constraint_x28_x22=[
0,0,2.2|
0,1,9.8|
0,2,4.3|
1,0,8.5|
1,1,4.6|
1,2,5.9|
2,0,8.7|
2,1,7.9|
2,2,6.8|
];
constraint_x28_x23=[
0,0,2|
0,1,9.6|
0,2,2.6|
1,0,4.1|
1,1,9.5|
1,2,0.22|
2,0,8.4|
2,1,4.2|
2,2,7.9|
];
constraint_x28_x24=[
0,0,8.9|
0,1,2.4|
0,2,8.6|
1,0,1.9|
1,1,9.2|
1,2,8.3|
2,0,9.7|
2,1,2.2|
2,2,4.9|
];
constraint_x28_x25=[
0,0,5.4|
0,1,9.7|
0,2,9.5|
1,0,6.3|
1,1,8.5|
1,2,9.3|
2,0,3.6|
2,1,3|
2,2,1.7|
];
constraint_x28_x26=[
0,0,4.7|
0,1,7.2|
0,2,4.9|
1,0,4.3|
1,1,3.3|
1,2,6.5|
2,0,7.3|
2,1,0.64|
2,2,0.79|
];
constraint_x28_x27=[
0,0,3.3|
0,1,1.1|
0,2,2.3|
1,0,3.1|
1,1,6|
1,2,3|
2,0,5.7|
2,1,0.9|
2,2,7.4|
];
constraint_x29_x2=[
0,0,9|
0,1,1.2|
0,2,1.7|
1,0,0.81|
1,1,4.8|
1,2,0.96|
2,0,0.73|
2,1,6.4|
2,2,2.5|
];
constraint_x29_x4=[
0,0,3.8|
0,1,9.4|
0,2,9.5|
1,0,7.9|
1,1,2.6|
1,2,8.6|
2,0,9.2|
2,1,5|
2,2,5.5|
];
constraint_x29_x5=[
0,0,9.2|
0,1,0.99|
0,2,6.7|
1,0,0.36|
1,1,9.5|
1,2,0.62|
2,0,0.7|
2,1,7.1|
2,2,7|
];
constraint_x29_x10=[
0,0,8.8|
0,1,4.5|
0,2,8|
1,0,0.54|
1,1,5|
1,2,2.4|
2,0,3.9|
2,1,0.32|
2,2,5.7|
];
constraint_x29_x11=[
0,0,8.7|
0,1,1.5|
0,2,1.5|
1,0,4.2|
1,1,5.7|
1,2,1.4|
2,0,5.7|
2,1,3.4|
2,2,4.9|
];
constraint_x29_x12=[
0,0,0.034|
0,1,1.3|
0,2,5.4|
1,0,6.8|
1,1,8.9|
1,2,1.8|
2,0,7.5|
2,1,6.5|
2,2,0.086|
];
constraint_x29_x15=[
0,0,5.2|
0,1,5.6|
0,2,9|
1,0,1|
1,1,9.1|
1,2,1.9|
2,0,1.2|
2,1,0.38|
2,2,1.4|
];
constraint_x29_x16=[
0,0,0.03|
0,1,9.7|
0,2,8.8|
1,0,2.4|
1,1,5.4|
1,2,8.2|
2,0,1.6|
2,1,2.8|
2,2,9.2|
];
constraint_x29_x19=[
0,0,7.2|
0,1,7.4|
0,2,2.9|
1,0,5|
1,1,2.5|
1,2,6.9|
2,0,7.8|
2,1,7.2|
2,2,0.18|
];
constraint_x29_x21=[
0,0,2.8|
0,1,8.2|
0,2,4|
1,0,2.5|
1,1,8.8|
1,2,3.6|
2,0,4.2|
2,1,4.7|
2,2,3.4|
];
constraint_x29_x22=[
0,0,2.2|
0,1,3.6|
0,2,0.67|
1,0,3.3|
1,1,0.28|
1,2,7.6|
2,0,1.6|
2,1,1.6|
2,2,7.4|
];
constraint_x29_x24=[
0,0,3.7|
0,1,2.5|
0,2,2.9|
1,0,2.5|
1,1,7.8|
1,2,5.8|
2,0,4.2|
2,1,4.3|
2,2,9.1|
];
constraint_x29_x25=[
0,0,7.2|
0,1,6.3|
0,2,6|
1,0,5.8|
1,1,5.1|
1,2,8.5|
2,0,4.3|
2,1,3.6|
2,2,0.47|
];
constraint_x29_x26=[
0,0,4.1|
0,1,4|
0,2,1.1|
1,0,6.9|
1,1,9.5|
1,2,7|
2,0,1.7|
2,1,0.89|
2,2,7.2|
];
constraint_x29_x27=[
0,0,8.3|
0,1,1.5|
0,2,6.4|
1,0,5.1|
1,1,4|
1,2,8.5|
2,0,7.7|
2,1,2.2|
2,2,1.7|
];
constraint_x29_x28=[
0,0,0.39|
0,1,4.4|
0,2,3.6|
1,0,5.7|
1,1,2.2|
1,2,6.4|
2,0,5.1|
2,1,5.7|
2,2,7.9|
];
constraint_x30_x3=[
0,0,0.0044|
0,1,3.7|
0,2,9|
1,0,6|
1,1,9.2|
1,2,9.1|
2,0,2.7|
2,1,9.6|
2,2,3.5|
];
constraint_x30_x4=[
0,0,0.35|
0,1,5.9|
0,2,4.6|
1,0,8.4|
1,1,4|
1,2,8.3|
2,0,6.8|
2,1,7.5|
2,2,7.7|
];
constraint_x30_x5=[
0,0,2.1|
0,1,3.6|
0,2,7.7|
1,0,1.1|
1,1,8|
1,2,0.81|
2,0,6.1|
2,1,4.2|
2,2,5.5|
];
constraint_x30_x6=[
0,0,6.9|
0,1,6.5|
0,2,4.7|
1,0,9.7|
1,1,0.96|
1,2,0.0014|
2,0,7.6|
2,1,6.2|
2,2,1.7|
];
constraint_x30_x8=[
0,0,8.1|
0,1,5.6|
0,2,9.8|
1,0,1.1|
1,1,0.94|
1,2,3.6|
2,0,7.7|
2,1,4.6|
2,2,4.6|
];
constraint_x30_x10=[
0,0,9.5|
0,1,5.1|
0,2,4.3|
1,0,3.5|
1,1,0.52|
1,2,1.4|
2,0,5.6|
2,1,0.21|
2,2,0.39|
];
constraint_x30_x14=[
0,0,6.2|
0,1,6.8|
0,2,1.7|
1,0,4.6|
1,1,8.7|
1,2,8.9|
2,0,9.2|
2,1,1.5|
2,2,4.3|
];
constraint_x30_x16=[
0,0,8.3|
0,1,4.9|
0,2,6.4|
1,0,5.3|
1,1,4.1|
1,2,3|
2,0,9.9|
2,1,2.1|
2,2,7.4|
];
constraint_x30_x17=[
0,0,6.3|
0,1,7.3|
0,2,8.9|
1,0,6.3|
1,1,5.2|
1,2,0.82|
2,0,7.5|
2,1,0.22|
2,2,9.3|
];
constraint_x30_x19=[
0,0,1.7|
0,1,9.5|
0,2,1.9|
1,0,3.1|
1,1,6|
1,2,7.2|
2,0,5|
2,1,3|
2,2,1.6|
];
constraint_x30_x26=[
0,0,3.1|
0,1,2.3|
0,2,5.1|
1,0,7.8|
1,1,6.8|
1,2,4.4|
2,0,5.4|
2,1,1.8|
2,2,9.5|
];
constraint_x30_x27=[
0,0,4.1|
0,1,1.1|
0,2,7.9|
1,0,9.6|
1,1,5.3|
1,2,1.1|
2,0,0.65|
2,1,3.4|
2,2,4.5|
];
constraint_x30_x28=[
0,0,1.2|
0,1,2|
0,2,5.8|
1,0,5.6|
1,1,7|
1,2,6.2|
2,0,2.5|
2,1,3.6|
2,2,9.7|
];
constraint_x30_x29=[
0,0,7.7|
0,1,6.9|
0,2,4.6|
1,0,1.4|
1,1,3.4|
1,2,4.2|
2,0,5.4|
2,1,0.4|
2,2,2.4|
];
constraint_x1_y1=[
0,0,8.3|
0,1,1.1|
0,2,9.2|
1,0,2.5|
1,1,0.67|
1,2,4.4|
2,0,5.4|
2,1,6.9|
2,2,1.7|
];
constraint_x2_y2=[
0,0,9.1|
0,1,9|
0,2,1.2|
1,0,1.2|
1,1,1.7|
1,2,8.7|
2,0,0.86|
2,1,3.1|
2,2,7|
];
constraint_x3_y3=[
0,0,0.17|
0,1,3.9|
0,2,5.8|
1,0,4.9|
1,1,3.6|
1,2,8.8|
2,0,1.8|
2,1,4.3|
2,2,3.2|
];
constraint_x4_y4=[
0,0,0.064|
0,1,2|
0,2,5|
1,0,1.1|
1,1,7|
1,2,3.9|
2,0,2.4|
2,1,5.6|
2,2,8.2|
];
constraint_x5_y5=[
0,0,5.1|
0,1,2.7|
0,2,5.6|
1,0,8.6|
1,1,6.4|
1,2,5|
2,0,3.2|
2,1,5.4|
2,2,9.2|
];
constraint_x6_y6=[
0,0,2.8|
0,1,8.2|
0,2,3.7|
1,0,4.6|
1,1,4|
1,2,9.5|
2,0,7.4|
2,1,4.1|
2,2,7.1|
];
initial_distribution_y1=[0.25,0.38,0.37];
initial_distribution_y2=[0.23,0.53,0.24];
initial_distribution_y3=[0.063,0.29,0.64];
initial_distribution_y4=[0.22,0.052,0.72];
initial_distribution_y5=[0.46,0.23,0.3];
initial_distribution_y6=[0.03,0.88,0.09];
transition_y1=[
0.26,0.41,0.33|
0.61,0.029,0.36|
0.24,0.31,0.45|
];
transition_y2=[
0.81,0.11,0.078|
0.08,0.45,0.47|
0.13,0.83,0.038|
];
transition_y3=[
0.47,0.49,0.035|
0.61,0.32,0.066|
0.43,0.074,0.5|
];
transition_y4=[
0.051,0.31,0.64|
0.44,0.23,0.34|
0.58,0.15,0.27|
];
transition_y5=[
0.16,0.7,0.14|
0.16,0.46,0.38|
0.27,0.43,0.31|
];
transition_y6=[
0.28,0.46,0.26|
0.47,0.11,0.42|
0.11,0.74,0.16|
];
